p cnf 21 9
a 1 0
e 2 0
a 3 4 5 0
e 6 7 0
a 8 0
e 9 0
a 10 11 12 0
e 13 0
a 14 15 0
e 16 17 18 0
a 19 0
e 20 21 0
4 -1 -5 10 -17 0
-12 -13 0
-7 -21 11 -16 0
14 13 5 0
5 -8 18 0
-21 1 -14 -15 -18 0
15 20 -7 18 -14 0
20 -19 -17 -12 0
-9 18 0
